Route #1: 15 16 24 42 33 8 11
Route #2: 19 35 18 25 44 10 3 5
Route #3: 32 39 22 7 12 36
Route #4: 28 21 41 29 31 34 40 1 27 20
Route #5: 38 4 30 2 37
Route #6: 17 45 6 43 13 26 14
Route #7: 9 23
Cost 939.7435418657789